Optimal - objective value 336.00000000
      0 F                    336                       1
      1 m_0_1                  1                       0
      3 m_0_2                  1                       0
      5 m_0_3                  1                       0
      7 m_0_4                  1                       0
      9 m_0_5                  1                       0
     11 m_0_6                  1                       0
     13 m_0_7                  1                       0
     15 m_0_8                  1                       0
     17 m_0_9                  1                       0
     19 m_0_10                 1                       0
     21 m_0_11                 1                       0
     23 m_0_12                 1                       0
     25 m_0_13                 1                       0
     27 m_0_14                 1                       0
     29 m_0_15                 1                       0
     31 m_0_16                 1                       0
     33 m_0_17                 1                       0
     35 m_0_18                 1                       0
     37 m_0_19                 1                       0
     39 m_0_20                 1                       0
     41 m_1_2                  1                       0
     43 m_1_3                  1                       0
     45 m_1_4                  1                       0
     48 m_5_1                  1                       0
     49 m_1_6                  1                       0
     51 m_1_7                  1                       0
     53 m_1_8                  1                       0
     55 m_1_9                  1                       0
     58 m_10_1                 1                       0
     59 m_1_11                 1                       0
     61 m_1_12                 1                       0
     63 m_1_13                 1                       0
     65 m_1_14                 1                       0
     67 m_1_15                 1                       0
     69 m_1_16                 1                       0
     71 m_1_17                 1                       0
     73 m_1_18                 1                       0
     75 m_1_19                 1                       0
     77 m_1_20                 1                       0
     79 m_2_3                  1                       0
     82 m_4_2                  1                       0
     84 m_5_2                  1                       0
     86 m_6_2                  1                       0
     87 m_2_7                  1                       0
     89 m_2_8                  1                       0
     92 m_9_2                  1                       0
     94 m_10_2                 1                       0
     95 m_2_11                 1                       0
     97 m_2_12                 1                       0
     99 m_2_13                 1                       0
    101 m_2_14                 1                       0
    103 m_2_15                 1                       0
    105 m_2_16                 1                       0
    107 m_2_17                 1                       0
    109 m_2_18                 1                       0
    111 m_2_19                 1                       0
    113 m_2_20                 1                       0
    116 m_4_3                  1                       0
    118 m_5_3                  1                       0
    120 m_6_3                  1                       0
    122 m_7_3                  1                       0
    123 m_3_8                  1                       0
    126 m_9_3                  1                       0
    128 m_10_3                 1                       0
    130 m_11_3                 1                       0
    131 m_3_12                 1                       0
    134 m_13_3                 1                       0
    135 m_3_14                 1                       0
    137 m_3_15                 1                       0
    139 m_3_16                 1                       0
    141 m_3_17                 1                       0
    143 m_3_18                 1                       0
    145 m_3_19                 1                       0
    147 m_3_20                 1                       0
    150 m_5_4                  1                       0
    152 m_6_4                  1                       0
    153 m_4_7                  1                       0
    155 m_4_8                  1                       0
    157 m_4_9                  1                       0
    160 m_10_4                 1                       0
    161 m_4_11                 1                       0
    163 m_4_12                 1                       0
    165 m_4_13                 1                       0
    167 m_4_14                 1                       0
    169 m_4_15                 1                       0
    171 m_4_16                 1                       0
    173 m_4_17                 1                       0
    175 m_4_18                 1                       0
    177 m_4_19                 1                       0
    179 m_4_20                 1                       0
    181 m_5_6                  1                       0
    183 m_5_7                  1                       0
    185 m_5_8                  1                       0
    187 m_5_9                  1                       0
    189 m_5_10                 1                       0
    191 m_5_11                 1                       0
    193 m_5_12                 1                       0
    195 m_5_13                 1                       0
    197 m_5_14                 1                       0
    199 m_5_15                 1                       0
    201 m_5_16                 1                       0
    203 m_5_17                 1                       0
    205 m_5_18                 1                       0
    207 m_5_19                 1                       0
    209 m_5_20                 1                       0
    211 m_6_7                  1                       0
    213 m_6_8                  1                       0
    215 m_6_9                  1                       0
    218 m_10_6                 1                       0
    219 m_6_11                 1                       0
    221 m_6_12                 1                       0
    223 m_6_13                 1                       0
    225 m_6_14                 1                       0
    227 m_6_15                 1                       0
    229 m_6_16                 1                       0
    231 m_6_17                 1                       0
    233 m_6_18                 1                       0
    235 m_6_19                 1                       0
    237 m_6_20                 1                       0
    239 m_7_8                  1                       0
    242 m_9_7                  1                       0
    244 m_10_7                 1                       0
    245 m_7_11                 1                       0
    247 m_7_12                 1                       0
    250 m_13_7                 1                       0
    251 m_7_14                 1                       0
    253 m_7_15                 1                       0
    255 m_7_16                 1                       0
    257 m_7_17                 1                       0
    259 m_7_18                 1                       0
    261 m_7_19                 1                       0
    263 m_7_20                 1                       0
    266 m_9_8                  1                       0
    268 m_10_8                 1                       0
    270 m_11_8                 1                       0
    271 m_8_12                 1                       0
    274 m_13_8                 1                       0
    275 m_8_14                 1                       0
    277 m_8_15                 1                       0
    280 m_16_8                 1                       0
    281 m_8_17                 1                       0
    283 m_8_18                 1                       0
    285 m_8_19                 1                       0
    287 m_8_20                 1                       0
    290 m_10_9                 1                       0
    291 m_9_11                 1                       0
    293 m_9_12                 1                       0
    295 m_9_13                 1                       0
    297 m_9_14                 1                       0
    299 m_9_15                 1                       0
    301 m_9_16                 1                       0
    303 m_9_17                 1                       0
    305 m_9_18                 1                       0
    307 m_9_19                 1                       0
    309 m_9_20                 1                       0
    311 m_10_11                1                       0
    313 m_10_12                1                       0
    315 m_10_13                1                       0
    317 m_10_14                1                       0
    319 m_10_15                1                       0
    321 m_10_16                1                       0
    323 m_10_17                1                       0
    325 m_10_18                1                       0
    327 m_10_19                1                       0
    329 m_10_20                1                       0
    331 m_11_12                1                       0
    334 m_13_11                1                       0
    335 m_11_14                1                       0
    337 m_11_15                1                       0
    339 m_11_16                1                       0
    341 m_11_17                1                       0
    343 m_11_18                1                       0
    345 m_11_19                1                       0
    347 m_11_20                1                       0
    350 m_13_12                1                       0
    352 m_14_12                1                       0
    353 m_12_15                1                       0
    356 m_16_12                1                       0
    358 m_17_12                1                       0
    359 m_12_18                1                       0
    361 m_12_19                1                       0
    363 m_12_20                1                       0
    365 m_13_14                1                       0
    367 m_13_15                1                       0
    369 m_13_16                1                       0
    371 m_13_17                1                       0
    373 m_13_18                1                       0
    375 m_13_19                1                       0
    377 m_13_20                1                       0
    379 m_14_15                1                       0
    382 m_16_14                1                       0
    383 m_14_17                1                       0
    385 m_14_18                1                       0
    387 m_14_19                1                       0
    389 m_14_20                1                       0
    392 m_16_15                1                       0
    394 m_17_15                1                       0
    395 m_15_18                1                       0
    397 m_15_19                1                       0
    399 m_15_20                1                       0
    401 m_16_17                1                       0
    403 m_16_18                1                       0
    405 m_16_19                1                       0
    407 m_16_20                1                       0
    409 m_17_18                1                       0
    411 m_17_19                1                       0
    413 m_17_20                1                       0
    416 m_19_18                1                       0
    417 m_18_20                1                       0
    419 m_19_20                1                       0
    421 s_0                    1                       0
    422 m_0_0                  1                       0
    423 s_1                    4                       0
    424 m_1_1                  1                       0
    425 s_2                    8                       0
    426 m_2_2                  1                       0
    427 s_3                   12                       0
    428 m_3_3                  1                       0
    429 s_4                    6                       0
    430 m_4_4                  1                       0
    431 s_5                    2                       0
    432 m_5_5                  1                       0
    433 s_6                    5                       0
    434 m_6_6                  1                       0
    435 s_7                   10                       0
    436 m_7_7                  1                       0
    437 s_8                   14                       0
    438 m_8_8                  1                       0
    439 s_9                    7                       0
    440 m_9_9                  1                       0
    441 s_10                   3                       0
    442 m_10_10                1                       0
    443 s_11                  11                       0
    444 m_11_11                1                       0
    445 s_12                  17                       0
    446 m_12_12                1                       0
    447 s_13                   9                       0
    448 m_13_13                1                       0
    449 s_14                  15                       0
    450 m_14_14                1                       0
    451 s_15                  18                       0
    452 m_15_15                1                       0
    453 s_16                  13                       0
    454 m_16_16                1                       0
    455 s_17                  16                       0
    456 m_17_17                1                       0
    457 s_18                  20                       0
    458 m_18_18                1                       0
    459 s_19                  19                       0
    460 m_19_19                1                       0
    461 s_20                  21                       0
    462 m_20_20                1                       0
    463 y_0_0                  1                       0
    484 y_0_1                  1                       0
    485 y_1_1                  1                       0
    494 y_10_1                 1                       0
    505 y_0_2                  1                       0
    507 y_2_2                  1                       0
    511 y_6_2                  1                       0
    514 y_9_2                  1                       0
    515 y_10_2                 1                       0
    526 y_0_3                  1                       0
    529 y_3_3                  1                       0
    532 y_6_3                  1                       0
    536 y_10_3                 1                       0
    537 y_11_3                 1                       0
    539 y_13_3                 1                       0
    547 y_0_4                  1                       0
    551 y_4_4                  1                       0
    553 y_6_4                  1                       0
    557 y_10_4                 1                       0
    568 y_0_5                  1                       0
    573 y_5_5                  1                       0
    589 y_0_6                  1                       0
    590 y_1_6                  1                       0
    595 y_6_6                  1                       0
    599 y_10_6                 1                       0
    610 y_0_7                  1                       0
    612 y_2_7                  1                       0
    616 y_6_7                  1                       0
    617 y_7_7                  1                       0
    620 y_10_7                 1                       0
    623 y_13_7                 1                       0
    631 y_0_8                  1                       0
    634 y_3_8                  1                       0
    637 y_6_8                  1                       0
    639 y_8_8                  1                       0
    641 y_10_8                 1                       0
    642 y_11_8                 1                       0
    647 y_16_8                 1                       0
    652 y_0_9                  1                       0
    656 y_4_9                  1                       0
    658 y_6_9                  1                       0
    661 y_9_9                  1                       0
    662 y_10_9                 1                       0
    673 y_0_10                 1                       0
    678 y_5_10                 1                       0
    683 y_10_10                1                       0
    694 y_0_11                 1                       0
    700 y_6_11                 1                       0
    701 y_7_11                 1                       0
    704 y_10_11                1                       0
    705 y_11_11                1                       0
    707 y_13_11                1                       0
    721 y_6_12                 1                       0
    723 y_8_12                 1                       0
    726 y_11_12                1                       0
    727 y_12_12                1                       0
    731 y_16_12                1                       0
    732 y_17_12                1                       0
    736 y_0_13                 1                       0
    738 y_2_13                 1                       0
    742 y_6_13                 1                       0
    745 y_9_13                 1                       0
    746 y_10_13                1                       0
    749 y_13_13                1                       0
    763 y_6_14                 1                       0
    765 y_8_14                 1                       0
    767 y_10_14                1                       0
    768 y_11_14                1                       0
    771 y_14_14                1                       0
    773 y_16_14                1                       0
    789 y_11_15                1                       0
    790 y_12_15                1                       0
    793 y_15_15                1                       0
    794 y_16_15                1                       0
    795 y_17_15                1                       0
    799 y_0_16                 1                       0
    802 y_3_16                 1                       0
    805 y_6_16                 1                       0
    809 y_10_16                1                       0
    810 y_11_16                1                       0
    812 y_13_16                1                       0
    815 y_16_16                1                       0
    826 y_6_17                 1                       0
    828 y_8_17                 1                       0
    831 y_11_17                1                       0
    834 y_14_17                1                       0
    836 y_16_17                1                       0
    837 y_17_17                1                       0
    856 y_15_18                1                       0
    857 y_16_18                1                       0
    859 y_18_18                1                       0
    860 y_19_18                1                       0
    877 y_15_19                1                       0
    878 y_16_19                1                       0
    879 y_17_19                1                       0
    881 y_19_19                1                       0
    901 y_18_20                1                       0
    902 y_19_20                1                       0
    903 y_20_20                1                       0
